158
100
6 34
14 71
18 107
10 59
31 142
18 78
27 152
28 158
12 59
43 187
9 46
15 79
15 67
32 184
36 155
16 93
8 34
14 77
36 175
46 246
17 72
17 82
14 72
21 88
48 275
30 165
30 176
40 192
49 205
49 201
25 117
38 163
48 249
17 96
48 231
39 218
30 156
65 343
14 72
9 46
13 60
18 106
32 182
23 93
16 87
1 5
36 158
11 48
31 185
28 156
13 65
44 235
29 145
44 196
44 190
5 27
40 177
19 85
27 119
43 246
11 46
45 240
8 40
9 46
4 19
15 84
7 33
34 161
59 320
23 118
16 74
7 30
28 152
27 125
35 195
17 98
64 303
39 166
22 130
5 30
31 177
33 158
14 75
20 87
16 96
16 92
41 233
37 176
28 141
32 178
10 48
42 182
22 114
8 44
38 154
9 52
3 13
26 117
32 183
23 103